\Problem name: TESTE 0

Minimize
OBJROW: -5 x1 -10 x2 -8 x3
Subject To
constr(0):  3 x1 + 5 x2 + 2 x3 <= 6
constr(1):  4 x1 + 4 x2 + 4 x3 <= 7
constr(2):  x2 = 1
Bounds
 0 <= x1 <= 1
 0 <= x2 <= 1
 0 <= x3 <= 1
End
